NAME: cities_5_10
TYPE: TSP
COMMENT: Generated from CSV
DIMENSION: 5
EDGE_WEIGHT_TYPE: EUC_2D
NODE_COORD_SECTION
1 78.90823437138583 25.293795978324795
2 43.59533259623576 19.709038377701592
3 56.14408774258579 51.82310920094264
4 24.313542395454448 4.799780650732566
5 60.61742136248327 46.11849580065103
EOF
